c Reduced graph for r18 generated by Cyril Grelier
p edge 200 2079
e 1 2
e 1 3
e 1 4
e 1 7
e 1 11
e 1 12
e 1 13
e 1 18
e 1 21
e 1 23
e 1 25
e 1 27
e 1 28
e 1 29
e 1 30
e 1 31
e 1 37
e 1 40
e 1 46
e 1 51
e 1 52
e 1 57
e 1 76
e 1 77
e 1 101
e 1 104
e 2 3
e 2 5
e 2 7
e 2 9
e 2 11
e 2 12
e 2 14
e 2 19
e 2 24
e 2 26
e 2 27
e 2 28
e 2 29
e 2 30
e 2 31
e 2 38
e 2 47
e 2 51
e 2 53
e 2 76
e 2 77
e 2 90
e 2 92
e 2 102
e 2 105
e 3 6
e 3 7
e 3 10
e 3 11
e 3 12
e 3 15
e 3 20
e 3 22
e 3 27
e 3 28
e 3 29
e 3 30
e 3 31
e 3 41
e 3 48
e 3 51
e 3 54
e 3 58
e 3 75
e 3 76
e 3 77
e 3 91
e 3 93
e 3 103
e 4 5
e 4 6
e 4 8
e 4 13
e 4 16
e 4 17
e 4 18
e 4 21
e 4 23
e 4 25
e 4 33
e 4 34
e 4 35
e 4 36
e 4 37
e 4 40
e 4 46
e 4 52
e 4 57
e 4 59
e 4 82
e 4 101
e 4 104
e 4 120
e 4 147
e 5 6
e 5 8
e 5 9
e 5 14
e 5 16
e 5 17
e 5 19
e 5 24
e 5 26
e 5 33
e 5 34
e 5 35
e 5 36
e 5 38
e 5 47
e 5 53
e 5 59
e 5 82
e 5 90
e 5 92
e 5 102
e 5 105
e 5 120
e 5 147
e 6 8
e 6 10
e 6 15
e 6 16
e 6 17
e 6 20
e 6 22
e 6 33
e 6 34
e 6 35
e 6 36
e 6 41
e 6 48
e 6 54
e 6 58
e 6 59
e 6 75
e 6 82
e 6 91
e 6 93
e 6 103
e 6 120
e 6 147
e 7 8
e 7 11
e 7 12
e 7 27
e 7 28
e 7 29
e 7 30
e 7 31
e 7 32
e 7 39
e 7 45
e 7 49
e 7 50
e 7 51
e 7 60
e 7 63
e 7 76
e 7 77
e 7 78
e 7 114
e 7 129
e 7 130
e 8 16
e 8 17
e 8 32
e 8 33
e 8 34
e 8 35
e 8 36
e 8 39
e 8 45
e 8 49
e 8 50
e 8 59
e 8 60
e 8 63
e 8 78
e 8 82
e 8 114
e 8 120
e 8 129
e 8 130
e 8 147
e 9 10
e 9 14
e 9 19
e 9 24
e 9 26
e 9 38
e 9 42
e 9 43
e 9 44
e 9 47
e 9 53
e 9 64
e 9 65
e 9 66
e 9 67
e 9 90
e 9 92
e 9 96
e 9 102
e 9 105
e 9 128
e 9 153
e 9 178
e 10 15
e 10 20
e 10 22
e 10 41
e 10 42
e 10 43
e 10 44
e 10 48
e 10 54
e 10 58
e 10 64
e 10 65
e 10 66
e 10 67
e 10 75
e 10 91
e 10 93
e 10 96
e 10 103
e 10 128
e 10 153
e 10 178
e 11 12
e 11 16
e 11 27
e 11 28
e 11 29
e 11 30
e 11 31
e 11 42
e 11 51
e 11 68
e 11 71
e 11 76
e 11 77
e 11 83
e 11 94
e 11 106
e 11 118
e 11 149
e 11 151
e 11 157
e 12 17
e 12 27
e 12 28
e 12 29
e 12 30
e 12 31
e 12 43
e 12 51
e 12 55
e 12 61
e 12 69
e 12 72
e 12 76
e 12 77
e 12 95
e 12 115
e 12 119
e 12 137
e 12 150
e 13 14
e 13 15
e 13 18
e 13 21
e 13 23
e 13 25
e 13 32
e 13 37
e 13 40
e 13 46
e 13 52
e 13 55
e 13 56
e 13 57
e 13 79
e 13 80
e 13 81
e 13 101
e 13 104
e 13 117
e 13 143
e 13 168
e 14 15
e 14 19
e 14 24
e 14 26
e 14 32
e 14 38
e 14 47
e 14 53
e 14 55
e 14 56
e 14 79
e 14 80
e 14 81
e 14 90
e 14 92
e 14 102
e 14 105
e 14 117
e 14 143
e 14 168
e 15 20
e 15 22
e 15 32
e 15 41
e 15 48
e 15 54
e 15 55
e 15 56
e 15 58
e 15 75
e 15 79
e 15 80
e 15 81
e 15 91
e 15 93
e 15 103
e 15 117
e 15 143
e 15 168
e 16 17
e 16 33
e 16 34
e 16 35
e 16 36
e 16 42
e 16 59
e 16 68
e 16 71
e 16 82
e 16 83
e 16 94
e 16 106
e 16 118
e 16 120
e 16 147
e 16 149
e 16 151
e 16 157
e 17 33
e 17 34
e 17 35
e 17 36
e 17 43
e 17 55
e 17 59
e 17 61
e 17 69
e 17 72
e 17 82
e 17 95
e 17 115
e 17 119
e 17 120
e 17 137
e 17 147
e 17 150
e 18 19
e 18 20
e 18 21
e 18 23
e 18 25
e 18 37
e 18 39
e 18 40
e 18 46
e 18 52
e 18 57
e 18 61
e 18 62
e 18 85
e 18 86
e 18 87
e 18 88
e 18 89
e 18 101
e 18 104
e 18 148
e 19 20
e 19 24
e 19 26
e 19 38
e 19 39
e 19 47
e 19 53
e 19 61
e 19 62
e 19 85
e 19 86
e 19 87
e 19 88
e 19 89
e 19 90
e 19 92
e 19 102
e 19 105
e 19 148
e 20 22
e 20 39
e 20 41
e 20 48
e 20 54
e 20 58
e 20 61
e 20 62
e 20 75
e 20 85
e 20 86
e 20 87
e 20 88
e 20 89
e 20 91
e 20 93
e 20 103
e 20 148
e 21 22
e 21 23
e 21 25
e 21 37
e 21 40
e 21 45
e 21 46
e 21 52
e 21 57
e 21 68
e 21 69
e 21 70
e 21 97
e 21 98
e 21 99
e 21 100
e 21 101
e 21 104
e 21 154
e 21 155
e 22 41
e 22 45
e 22 48
e 22 54
e 22 58
e 22 68
e 22 69
e 22 70
e 22 75
e 22 91
e 22 93
e 22 97
e 22 98
e 22 99
e 22 100
e 22 103
e 22 154
e 22 155
e 23 24
e 23 25
e 23 37
e 23 40
e 23 46
e 23 49
e 23 52
e 23 57
e 23 71
e 23 72
e 23 73
e 23 101
e 23 104
e 23 107
e 23 108
e 23 109
e 23 135
e 23 160
e 23 190
e 24 26
e 24 38
e 24 47
e 24 49
e 24 53
e 24 71
e 24 72
e 24 73
e 24 90
e 24 92
e 24 102
e 24 105
e 24 107
e 24 108
e 24 109
e 24 135
e 24 160
e 24 190
e 25 26
e 25 37
e 25 40
e 25 46
e 25 50
e 25 52
e 25 57
e 25 74
e 25 101
e 25 104
e 25 110
e 25 111
e 25 112
e 25 113
e 25 136
e 25 161
e 25 162
e 25 191
e 26 38
e 26 47
e 26 50
e 26 53
e 26 74
e 26 90
e 26 92
e 26 102
e 26 105
e 26 110
e 26 111
e 26 112
e 26 113
e 26 136
e 26 161
e 26 162
e 26 191
e 27 28
e 27 29
e 27 30
e 27 31
e 27 51
e 27 76
e 27 77
e 27 79
e 27 85
e 27 97
e 27 121
e 27 124
e 27 139
e 27 144
e 27 163
e 27 171
e 27 179
e 28 29
e 28 30
e 28 31
e 28 33
e 28 51
e 28 65
e 28 76
e 28 77
e 28 87
e 28 111
e 28 123
e 28 125
e 28 165
e 28 172
e 28 180
e 28 182
e 29 30
e 29 31
e 29 34
e 29 51
e 29 76
e 29 77
e 29 81
e 29 88
e 29 108
e 29 112
e 29 126
e 29 132
e 29 141
e 29 173
e 29 175
e 30 31
e 30 35
e 30 51
e 30 66
e 30 76
e 30 77
e 30 89
e 30 99
e 30 109
e 30 113
e 30 133
e 30 145
e 30 166
e 30 176
e 31 36
e 31 51
e 31 67
e 31 76
e 31 77
e 31 100
e 31 127
e 31 134
e 31 142
e 31 146
e 31 167
e 31 181
e 31 183
e 32 39
e 32 45
e 32 49
e 32 50
e 32 55
e 32 56
e 32 60
e 32 63
e 32 78
e 32 79
e 32 80
e 32 81
e 32 114
e 32 117
e 32 129
e 32 130
e 32 143
e 32 168
e 33 34
e 33 35
e 33 36
e 33 59
e 33 65
e 33 82
e 33 87
e 33 111
e 33 120
e 33 123
e 33 125
e 33 147
e 33 165
e 33 172
e 33 180
e 33 182
e 34 35
e 34 36
e 34 59
e 34 81
e 34 82
e 34 88
e 34 108
e 34 112
e 34 120
e 34 126
e 34 132
e 34 141
e 34 147
e 34 173
e 34 175
e 35 36
e 35 59
e 35 66
e 35 82
e 35 89
e 35 99
e 35 109
e 35 113
e 35 120
e 35 133
e 35 145
e 35 147
e 35 166
e 35 176
e 36 59
e 36 67
e 36 82
e 36 100
e 36 120
e 36 127
e 36 134
e 36 142
e 36 146
e 36 147
e 36 167
e 36 181
e 36 183
e 37 38
e 37 40
e 37 46
e 37 52
e 37 57
e 37 60
e 37 83
e 37 84
e 37 101
e 37 104
e 37 121
e 37 122
e 37 123
e 37 170
e 37 187
e 37 193
e 38 47
e 38 53
e 38 60
e 38 83
e 38 84
e 38 90
e 38 92
e 38 102
e 38 105
e 38 121
e 38 122
e 38 123
e 38 170
e 38 187
e 38 193
e 39 45
e 39 49
e 39 50
e 39 60
e 39 61
e 39 62
e 39 63
e 39 78
e 39 85
e 39 86
e 39 87
e 39 88
e 39 89
e 39 114
e 39 129
e 39 130
e 39 148
e 40 41
e 40 46
e 40 52
e 40 57
e 40 63
e 40 94
e 40 95
e 40 101
e 40 104
e 40 124
e 40 125
e 40 126
e 40 127
e 40 177
e 40 189
e 41 48
e 41 54
e 41 58
e 41 63
e 41 75
e 41 91
e 41 93
e 41 94
e 41 95
e 41 103
e 41 124
e 41 125
e 41 126
e 41 127
e 41 177
e 41 189
e 42 43
e 42 44
e 42 64
e 42 65
e 42 66
e 42 67
e 42 68
e 42 71
e 42 83
e 42 94
e 42 96
e 42 106
e 42 118
e 42 128
e 42 149
e 42 151
e 42 153
e 42 157
e 42 178
e 43 44
e 43 55
e 43 61
e 43 64
e 43 65
e 43 66
e 43 67
e 43 69
e 43 72
e 43 95
e 43 96
e 43 115
e 43 119
e 43 128
e 43 137
e 43 150
e 43 153
e 43 178
e 44 56
e 44 62
e 44 64
e 44 65
e 44 66
e 44 67
e 44 70
e 44 73
e 44 74
e 44 84
e 44 96
e 44 116
e 44 128
e 44 138
e 44 152
e 44 153
e 44 156
e 44 158
e 44 178
e 45 49
e 45 50
e 45 60
e 45 63
e 45 68
e 45 69
e 45 70
e 45 78
e 45 97
e 45 98
e 45 99
e 45 100
e 45 114
e 45 129
e 45 130
e 45 154
e 45 155
e 46 47
e 46 48
e 46 52
e 46 57
e 46 101
e 46 104
e 46 106
e 46 131
e 46 132
e 46 133
e 46 134
e 46 159
e 46 184
e 46 197
e 47 48
e 47 53
e 47 90
e 47 92
e 47 102
e 47 105
e 47 106
e 47 131
e 47 132
e 47 133
e 47 134
e 47 159
e 47 184
e 47 197
e 48 54
e 48 58
e 48 75
e 48 91
e 48 93
e 48 103
e 48 106
e 48 131
e 48 132
e 48 133
e 48 134
e 48 159
e 48 184
e 48 197
e 49 50
e 49 60
e 49 63
e 49 71
e 49 72
e 49 73
e 49 78
e 49 107
e 49 108
e 49 109
e 49 114
e 49 129
e 49 130
e 49 135
e 49 160
e 49 190
e 50 60
e 50 63
e 50 74
e 50 78
e 50 110
e 50 111
e 50 112
e 50 113
e 50 114
e 50 129
e 50 130
e 50 136
e 50 161
e 50 162
e 50 191
e 51 59
e 51 76
e 51 77
e 51 96
e 51 117
e 51 135
e 51 136
e 51 159
e 51 169
e 51 185
e 51 188
e 52 53
e 52 54
e 52 57
e 52 78
e 52 101
e 52 104
e 52 115
e 52 116
e 52 139
e 52 140
e 52 141
e 52 142
e 53 54
e 53 78
e 53 90
e 53 92
e 53 102
e 53 105
e 53 115
e 53 116
e 53 139
e 53 140
e 53 141
e 53 142
e 54 58
e 54 75
e 54 78
e 54 91
e 54 93
e 54 103
e 54 115
e 54 116
e 54 139
e 54 140
e 54 141
e 54 142
e 55 56
e 55 61
e 55 69
e 55 72
e 55 79
e 55 80
e 55 81
e 55 95
e 55 115
e 55 117
e 55 119
e 55 137
e 55 143
e 55 150
e 55 168
e 56 62
e 56 70
e 56 73
e 56 74
e 56 79
e 56 80
e 56 81
e 56 84
e 56 116
e 56 117
e 56 138
e 56 143
e 56 152
e 56 156
e 56 158
e 56 168
e 57 58
e 57 101
e 57 104
e 57 118
e 57 119
e 57 144
e 57 145
e 57 146
e 57 169
e 57 186
e 57 192
e 58 75
e 58 91
e 58 93
e 58 103
e 58 118
e 58 119
e 58 144
e 58 145
e 58 146
e 58 169
e 58 186
e 58 192
e 59 82
e 59 96
e 59 117
e 59 120
e 59 135
e 59 136
e 59 147
e 59 159
e 59 169
e 59 185
e 59 188
e 60 63
e 60 78
e 60 83
e 60 84
e 60 114
e 60 121
e 60 122
e 60 123
e 60 129
e 60 130
e 60 170
e 60 187
e 60 193
e 61 62
e 61 69
e 61 72
e 61 85
e 61 86
e 61 87
e 61 88
e 61 89
e 61 95
e 61 115
e 61 119
e 61 137
e 61 148
e 61 150
e 62 70
e 62 73
e 62 74
e 62 84
e 62 85
e 62 86
e 62 87
e 62 88
e 62 89
e 62 116
e 62 138
e 62 148
e 62 152
e 62 156
e 62 158
e 63 78
e 63 94
e 63 95
e 63 114
e 63 124
e 63 125
e 63 126
e 63 127
e 63 129
e 63 130
e 63 177
e 63 189
e 64 65
e 64 66
e 64 67
e 64 80
e 64 86
e 64 96
e 64 98
e 64 107
e 64 110
e 64 122
e 64 128
e 64 131
e 64 140
e 64 153
e 64 164
e 64 174
e 64 178
e 65 66
e 65 67
e 65 87
e 65 96
e 65 111
e 65 123
e 65 125
e 65 128
e 65 153
e 65 165
e 65 172
e 65 178
e 65 180
e 65 182
e 66 67
e 66 89
e 66 96
e 66 99
e 66 109
e 66 113
e 66 128
e 66 133
e 66 145
e 66 153
e 66 166
e 66 176
e 66 178
e 67 96
e 67 100
e 67 127
e 67 128
e 67 134
e 67 142
e 67 146
e 67 153
e 67 167
e 67 178
e 67 181
e 67 183
e 68 69
e 68 70
e 68 71
e 68 83
e 68 94
e 68 97
e 68 98
e 68 99
e 68 100
e 68 106
e 68 118
e 68 149
e 68 151
e 68 154
e 68 155
e 68 157
e 69 70
e 69 72
e 69 95
e 69 97
e 69 98
e 69 99
e 69 100
e 69 115
e 69 119
e 69 137
e 69 150
e 69 154
e 69 155
e 70 73
e 70 74
e 70 84
e 70 97
e 70 98
e 70 99
e 70 100
e 70 116
e 70 138
e 70 152
e 70 154
e 70 155
e 70 156
e 70 158
e 71 72
e 71 73
e 71 83
e 71 94
e 71 106
e 71 107
e 71 108
e 71 109
e 71 118
e 71 135
e 71 149
e 71 151
e 71 157
e 71 160
e 71 190
e 72 73
e 72 95
e 72 107
e 72 108
e 72 109
e 72 115
e 72 119
e 72 135
e 72 137
e 72 150
e 72 160
e 72 190
e 73 74
e 73 84
e 73 107
e 73 108
e 73 109
e 73 116
e 73 135
e 73 138
e 73 152
e 73 156
e 73 158
e 73 160
e 73 190
e 74 84
e 74 110
e 74 111
e 74 112
e 74 113
e 74 116
e 74 136
e 74 138
e 74 152
e 74 156
e 74 158
e 74 161
e 74 162
e 74 191
e 75 91
e 75 93
e 75 103
e 75 114
e 75 137
e 75 138
e 75 163
e 75 164
e 75 165
e 75 166
e 75 167
e 75 185
e 76 77
e 76 82
e 76 128
e 76 148
e 76 154
e 76 161
e 76 177
e 76 184
e 76 195
e 77 143
e 77 155
e 77 160
e 77 162
e 77 170
e 77 186
e 77 194
e 77 196
e 78 114
e 78 115
e 78 116
e 78 129
e 78 130
e 78 139
e 78 140
e 78 141
e 78 142
e 79 80
e 79 81
e 79 85
e 79 97
e 79 117
e 79 121
e 79 124
e 79 139
e 79 143
e 79 144
e 79 163
e 79 168
e 79 171
e 79 179
e 80 81
e 80 86
e 80 98
e 80 107
e 80 110
e 80 117
e 80 122
e 80 131
e 80 140
e 80 143
e 80 164
e 80 168
e 80 174
e 81 88
e 81 108
e 81 112
e 81 117
e 81 126
e 81 132
e 81 141
e 81 143
e 81 168
e 81 173
e 81 175
e 82 120
e 82 128
e 82 147
e 82 148
e 82 154
e 82 161
e 82 177
e 82 184
e 82 195
e 83 84
e 83 94
e 83 106
e 83 118
e 83 121
e 83 122
e 83 123
e 83 149
e 83 151
e 83 157
e 83 170
e 83 187
e 83 193
e 84 116
e 84 121
e 84 122
e 84 123
e 84 138
e 84 152
e 84 156
e 84 158
e 84 170
e 84 187
e 84 193
e 85 86
e 85 87
e 85 88
e 85 89
e 85 97
e 85 121
e 85 124
e 85 139
e 85 144
e 85 148
e 85 163
e 85 171
e 85 179
e 86 87
e 86 88
e 86 89
e 86 98
e 86 107
e 86 110
e 86 122
e 86 131
e 86 140
e 86 148
e 86 164
e 86 174
e 87 88
e 87 89
e 87 111
e 87 123
e 87 125
e 87 148
e 87 165
e 87 172
e 87 180
e 87 182
e 88 89
e 88 108
e 88 112
e 88 126
e 88 132
e 88 141
e 88 148
e 88 173
e 88 175
e 89 99
e 89 109
e 89 113
e 89 133
e 89 145
e 89 148
e 89 166
e 89 176
e 90 91
e 90 92
e 90 102
e 90 105
e 90 149
e 90 150
e 90 171
e 90 172
e 90 173
e 90 188
e 90 198
e 91 93
e 91 103
e 91 149
e 91 150
e 91 171
e 91 172
e 91 173
e 91 188
e 91 198
e 92 93
e 92 102
e 92 105
e 92 151
e 92 152
e 92 174
e 92 175
e 92 176
e 92 194
e 92 199
e 93 103
e 93 151
e 93 152
e 93 174
e 93 175
e 93 176
e 93 194
e 93 199
e 94 95
e 94 106
e 94 118
e 94 124
e 94 125
e 94 126
e 94 127
e 94 149
e 94 151
e 94 157
e 94 177
e 94 189
e 95 115
e 95 119
e 95 124
e 95 125
e 95 126
e 95 127
e 95 137
e 95 150
e 95 177
e 95 189
e 96 117
e 96 128
e 96 135
e 96 136
e 96 153
e 96 159
e 96 169
e 96 178
e 96 185
e 96 188
e 97 98
e 97 99
e 97 100
e 97 121
e 97 124
e 97 139
e 97 144
e 97 154
e 97 155
e 97 163
e 97 171
e 97 179
e 98 99
e 98 100
e 98 107
e 98 110
e 98 122
e 98 131
e 98 140
e 98 154
e 98 155
e 98 164
e 98 174
e 99 100
e 99 109
e 99 113
e 99 133
e 99 145
e 99 154
e 99 155
e 99 166
e 99 176
e 100 127
e 100 134
e 100 142
e 100 146
e 100 154
e 100 155
e 100 167
e 100 181
e 100 183
e 101 102
e 101 103
e 101 104
e 101 129
e 101 156
e 101 179
e 101 180
e 101 181
e 101 200
e 102 103
e 102 105
e 102 129
e 102 156
e 102 179
e 102 180
e 102 181
e 102 200
e 103 129
e 103 156
e 103 179
e 103 180
e 103 181
e 103 200
e 104 105
e 104 130
e 104 157
e 104 158
e 104 182
e 104 183
e 104 195
e 104 196
e 105 130
e 105 157
e 105 158
e 105 182
e 105 183
e 105 195
e 105 196
e 106 118
e 106 131
e 106 132
e 106 133
e 106 134
e 106 149
e 106 151
e 106 157
e 106 159
e 106 184
e 106 197
e 107 108
e 107 109
e 107 110
e 107 122
e 107 131
e 107 135
e 107 140
e 107 160
e 107 164
e 107 174
e 107 190
e 108 109
e 108 112
e 108 126
e 108 132
e 108 135
e 108 141
e 108 160
e 108 173
e 108 175
e 108 190
e 109 113
e 109 133
e 109 135
e 109 145
e 109 160
e 109 166
e 109 176
e 109 190
e 110 111
e 110 112
e 110 113
e 110 122
e 110 131
e 110 136
e 110 140
e 110 161
e 110 162
e 110 164
e 110 174
e 110 191
e 111 112
e 111 113
e 111 123
e 111 125
e 111 136
e 111 161
e 111 162
e 111 165
e 111 172
e 111 180
e 111 182
e 111 191
e 112 113
e 112 126
e 112 132
e 112 136
e 112 141
e 112 161
e 112 162
e 112 173
e 112 175
e 112 191
e 113 133
e 113 136
e 113 145
e 113 161
e 113 162
e 113 166
e 113 176
e 113 191
e 114 129
e 114 130
e 114 137
e 114 138
e 114 163
e 114 164
e 114 165
e 114 166
e 114 167
e 114 185
e 115 116
e 115 119
e 115 137
e 115 139
e 115 140
e 115 141
e 115 142
e 115 150
e 116 138
e 116 139
e 116 140
e 116 141
e 116 142
e 116 152
e 116 156
e 116 158
e 117 135
e 117 136
e 117 143
e 117 159
e 117 168
e 117 169
e 117 185
e 117 188
e 118 119
e 118 144
e 118 145
e 118 146
e 118 149
e 118 151
e 118 157
e 118 169
e 118 186
e 118 192
e 119 137
e 119 144
e 119 145
e 119 146
e 119 150
e 119 169
e 119 186
e 119 192
e 120 147
e 120 153
e 120 168
e 120 187
e 120 189
e 120 192
e 120 198
e 120 199
e 121 122
e 121 123
e 121 124
e 121 139
e 121 144
e 121 163
e 121 170
e 121 171
e 121 179
e 121 187
e 121 193
e 122 123
e 122 131
e 122 140
e 122 164
e 122 170
e 122 174
e 122 187
e 122 193
e 123 125
e 123 165
e 123 170
e 123 172
e 123 180
e 123 182
e 123 187
e 123 193
e 124 125
e 124 126
e 124 127
e 124 139
e 124 144
e 124 163
e 124 171
e 124 177
e 124 179
e 124 189
e 125 126
e 125 127
e 125 165
e 125 172
e 125 177
e 125 180
e 125 182
e 125 189
e 126 127
e 126 132
e 126 141
e 126 173
e 126 175
e 126 177
e 126 189
e 127 134
e 127 142
e 127 146
e 127 167
e 127 177
e 127 181
e 127 183
e 127 189
e 128 148
e 128 153
e 128 154
e 128 161
e 128 177
e 128 178
e 128 184
e 128 195
e 129 130
e 129 156
e 129 179
e 129 180
e 129 181
e 129 200
e 130 157
e 130 158
e 130 182
e 130 183
e 130 195
e 130 196
e 131 132
e 131 133
e 131 134
e 131 140
e 131 159
e 131 164
e 131 174
e 131 184
e 131 197
e 132 133
e 132 134
e 132 141
e 132 159
e 132 173
e 132 175
e 132 184
e 132 197
e 133 134
e 133 145
e 133 159
e 133 166
e 133 176
e 133 184
e 133 197
e 134 142
e 134 146
e 134 159
e 134 167
e 134 181
e 134 183
e 134 184
e 134 197
e 135 136
e 135 159
e 135 160
e 135 169
e 135 185
e 135 188
e 135 190
e 136 159
e 136 161
e 136 162
e 136 169
e 136 185
e 136 188
e 136 191
e 137 138
e 137 150
e 137 163
e 137 164
e 137 165
e 137 166
e 137 167
e 137 185
e 138 152
e 138 156
e 138 158
e 138 163
e 138 164
e 138 165
e 138 166
e 138 167
e 138 185
e 139 140
e 139 141
e 139 142
e 139 144
e 139 163
e 139 171
e 139 179
e 140 141
e 140 142
e 140 164
e 140 174
e 141 142
e 141 173
e 141 175
e 142 146
e 142 167
e 142 181
e 142 183
e 143 155
e 143 160
e 143 162
e 143 168
e 143 170
e 143 186
e 143 194
e 143 196
e 144 145
e 144 146
e 144 163
e 144 169
e 144 171
e 144 179
e 144 186
e 144 192
e 145 146
e 145 166
e 145 169
e 145 176
e 145 186
e 145 192
e 146 167
e 146 169
e 146 181
e 146 183
e 146 186
e 146 192
e 147 178
e 147 190
e 147 191
e 147 193
e 147 197
e 147 200
e 148 154
e 148 161
e 148 177
e 148 184
e 148 195
e 149 150
e 149 151
e 149 157
e 149 171
e 149 172
e 149 173
e 149 188
e 149 198
e 150 171
e 150 172
e 150 173
e 150 188
e 150 198
e 151 152
e 151 157
e 151 174
e 151 175
e 151 176
e 151 194
e 151 199
e 152 156
e 152 158
e 152 174
e 152 175
e 152 176
e 152 194
e 152 199
e 153 168
e 153 178
e 153 187
e 153 189
e 153 192
e 153 198
e 153 199
e 154 155
e 154 161
e 154 177
e 154 184
e 154 195
e 155 160
e 155 162
e 155 170
e 155 186
e 155 194
e 155 196
e 156 158
e 156 179
e 156 180
e 156 181
e 156 200
e 157 158
e 157 182
e 157 183
e 157 195
e 157 196
e 158 182
e 158 183
e 158 195
e 158 196
e 159 169
e 159 184
e 159 185
e 159 188
e 159 197
e 160 162
e 160 170
e 160 186
e 160 190
e 160 194
e 160 196
e 161 162
e 161 177
e 161 184
e 161 191
e 161 195
e 162 170
e 162 186
e 162 191
e 162 194
e 162 196
e 163 164
e 163 165
e 163 166
e 163 167
e 163 171
e 163 179
e 163 185
e 164 165
e 164 166
e 164 167
e 164 174
e 164 185
e 165 166
e 165 167
e 165 172
e 165 180
e 165 182
e 165 185
e 166 167
e 166 176
e 166 185
e 167 181
e 167 183
e 167 185
e 168 187
e 168 189
e 168 192
e 168 198
e 168 199
e 169 185
e 169 186
e 169 188
e 169 192
e 170 186
e 170 187
e 170 193
e 170 194
e 170 196
e 171 172
e 171 173
e 171 179
e 171 188
e 171 198
e 172 173
e 172 180
e 172 182
e 172 188
e 172 198
e 173 175
e 173 188
e 173 198
e 174 175
e 174 176
e 174 194
e 174 199
e 175 176
e 175 194
e 175 199
e 176 194
e 176 199
e 177 184
e 177 189
e 177 195
e 178 190
e 178 191
e 178 193
e 178 197
e 178 200
e 179 180
e 179 181
e 179 200
e 180 181
e 180 182
e 180 200
e 181 183
e 181 200
e 182 183
e 182 195
e 182 196
e 183 195
e 183 196
e 184 195
e 184 197
e 185 188
e 186 192
e 186 194
e 186 196
e 187 189
e 187 192
e 187 193
e 187 198
e 187 199
e 188 198
e 189 192
e 189 198
e 189 199
e 190 191
e 190 193
e 190 197
e 190 200
e 191 193
e 191 197
e 191 200
e 192 198
e 192 199
e 193 197
e 193 200
e 194 196
e 194 199
e 195 196
e 197 200
e 198 199
